% Número total de personas
n = 100;

% Número de opiniones posibles
m = 5;

% Distribución inicial de personas por opinión
p = [30, 30, 25, 13, 2];

% Valores de las opiniones
v = [0.051, 0.251, 0.448, 0.834, 0.877];

% Costos extras al mover a opiniones vacías
ce = [14.171, 12.060, 12.170, 10.066, 17.711];

% Matriz de costos de mover de una opinión a otra
c = array2d(1..5, 1..5,
  [
    0.000,    1.775,    1.200,    5.444,    1.188,
    1.588,    0.000,    5.645,    0.236,    3.044,
    0.805,    4.124,    0.000,    4.074,    1.348,
    1.853,    1.137,    5.686,    0.000,    0.541,
    5.539,    1.115,    2.223,    3.644,    0.000
  ]);

% Costo total máximo permitido
ct = 52.420;

% Número máximo de movimientos permitidos
maxM = 35;
